Minimize
 obj: 0 X_0_1
Subject To
 out_0:
  + 1 X_0_1 + 1 X_0_2 + 1 X_0_3 + 1 X_0_4
  = 1
 in_0:
  + 1 X_1_0 + 1 X_2_0 + 1 X_3_0 + 1 X_4_0
  = 1
 out_1:
  + 1 X_1_0 + 1 X_1_2 + 1 X_1_3 + 1 X_1_4
  = 1
 in_1:
  + 1 X_0_1 + 1 X_2_1 + 1 X_3_1 + 1 X_4_1
  = 1
 out_2:
  + 1 X_2_0 + 1 X_2_1 + 1 X_2_3 + 1 X_2_4
  = 1
 in_2:
  + 1 X_0_2 + 1 X_1_2 + 1 X_3_2 + 1 X_4_2
  = 1
 out_3:
  + 1 X_3_0 + 1 X_3_1 + 1 X_3_2 + 1 X_3_4
  = 1
 in_3:
  + 1 X_0_3 + 1 X_1_3 + 1 X_2_3 + 1 X_4_3
  = 1
 out_4:
  + 1 X_4_0 + 1 X_4_1 + 1 X_4_2 + 1 X_4_3
  = 1
 in_4:
  + 1 X_0_4 + 1 X_1_4 + 1 X_2_4 + 1 X_3_4
  = 1
 mtz_1_2:
  + 1 U1 - 1 U2 + 4 X_1_2
  <= 3
 mtz_1_3:
  + 1 U1 - 1 U3 + 4 X_1_3
  <= 3
 mtz_1_4:
  + 1 U1 - 1 U4 + 4 X_1_4
  <= 3
 mtz_2_1:
  + 1 U2 - 1 U1 + 4 X_2_1
  <= 3
 mtz_2_3:
  + 1 U2 - 1 U3 + 4 X_2_3
  <= 3
 mtz_2_4:
  + 1 U2 - 1 U4 + 4 X_2_4
  <= 3
 mtz_3_1:
  + 1 U3 - 1 U1 + 4 X_3_1
  <= 3
 mtz_3_2:
  + 1 U3 - 1 U2 + 4 X_3_2
  <= 3
 mtz_3_4:
  + 1 U3 - 1 U4 + 4 X_3_4
  <= 3
 mtz_4_1:
  + 1 U4 - 1 U1 + 4 X_4_1
  <= 3
 mtz_4_2:
  + 1 U4 - 1 U2 + 4 X_4_2
  <= 3
 mtz_4_3:
  + 1 U4 - 1 U3 + 4 X_4_3
  <= 3
 obj1:
  + 419 X_0_1 + 594 X_0_2 + 320 X_0_3 + 180 X_0_4 + 419 X_1_0 + 934 X_1_2 + 543 X_1_3 + 410 X_1_4
  + 594 X_2_0 + 934 X_2_1 + 847 X_2_3 + 524 X_2_4 + 320 X_3_0 + 543 X_3_1 + 847 X_3_2 + 499 X_3_4
  + 180 X_4_0 + 410 X_4_1 + 524 X_4_2 + 499 X_4_3
  <= 1
 obj2:
  + 921 X_0_1 + 806 X_0_2 + 189 X_0_3 + 634 X_0_4 + 921 X_1_0 + 704 X_1_2 + 773 X_1_3 + 349 X_1_4
  + 806 X_2_0 + 704 X_2_1 + 623 X_2_3 + 761 X_2_4 + 189 X_3_0 + 773 X_3_1 + 623 X_3_2 + 530 X_3_4
  + 634 X_4_0 + 349 X_4_1 + 761 X_4_2 + 530 X_4_3
  <= 2
 obj3:
  + 350 X_0_1 + 381 X_0_2 + 587 X_0_3 + 381 X_0_4 + 350 X_1_0 + 55 X_1_2 + 464 X_1_3 + 140 X_1_4
  + 381 X_2_0 + 55 X_2_1 + 512 X_2_3 + 189 X_2_4 + 587 X_3_0 + 464 X_3_1 + 512 X_3_2 + 323 X_3_4
  + 381 X_4_0 + 140 X_4_1 + 189 X_4_2 + 323 X_4_3
  <= 3
 obj4:
  + 634 X_0_1 + 36 X_0_2 + 749 X_0_3 + 294 X_0_4 + 634 X_1_0 + 669 X_1_2 + 141 X_1_3 + 552 X_1_4
  + 36 X_2_0 + 669 X_2_1 + 783 X_2_3 + 322 X_2_4 + 749 X_3_0 + 141 X_3_1 + 783 X_3_2 + 692 X_3_4
  + 294 X_4_0 + 552 X_4_1 + 322 X_4_2 + 692 X_4_3
  <= 4
 obj5:
  + 445 X_0_1 + 811 X_0_2 + 295 X_0_3 + 346 X_0_4 + 445 X_1_0 + 945 X_1_2 + 695 X_1_3 + 612 X_1_4
  + 811 X_2_0 + 945 X_2_1 + 643 X_2_3 + 469 X_2_4 + 295 X_3_0 + 695 X_3_1 + 643 X_3_2 + 217 X_3_4
  + 346 X_4_0 + 612 X_4_1 + 469 X_4_2 + 217 X_4_3
  <= 5
Bounds
 1 <= U1 <= 4
 1 <= U2 <= 4
 1 <= U3 <= 4
 1 <= U4 <= 4
Binary
 X_0_1
 X_0_2
 X_0_3
 X_0_4
 X_1_0
 X_1_2
 X_1_3
 X_1_4
 X_2_0
 X_2_1
 X_2_3
 X_2_4
 X_3_0
 X_3_1
 X_3_2
 X_3_4
 X_4_0
 X_4_1
 X_4_2
 X_4_3
End
